Route #1: 0 30 52 16 50 18 4 43 0
Route #2: 0 28 5 7 39 49 29 10 15 35 20 23 0
Route #3: 0 36 1 45 26 33 38 17 0
Route #4: 0 21 9 44 53 0
Route #5: 0 13 11 3 22 27 2 14 0
Route #6: 0 12 37 48 40 31 8 19 0
Route #7: 0 34 41 25 47 51 24 42 46 32 6 0
Cost 1275:
